
MINIMIZE
 objective: x1 + x2
SUBJECT TO
 s: 4 x1 + x2 >= 5
 s: x3 = 8
 s: y1 + y2 = 1
 s: y1 + z1 = 1
 s: y2 + z2 = 1
 s: x1 - 1000 z1 <= 2
 s: x1 + 1000 z2 >= 4
BOUNDS
INTEGERS
 x1
 x2
 x3
BINARIES
 y1 z1
 y2 z2
END
